p cnf 22 114
1 0
1 1 1 1 -3 0
1 1 1 1 -5 0
1 1 1 -7 0
1 1 1 1 -8 0
1 1 1 1 -9 0
1 1 1 -1 2 3 0
1 -1 2 4 5 0
1 -1 7 0
-1 8 0
-1 9 0
1 1 1 -2 -3 4 -5 0
1 1 1 1 -2 0
1 1 -2 7 0
-2 8 0
-2 9 0
1 1 -1 1 2 3 0
1 1 2 -7 0
1 -1 1 4 5 0
1 -1 2 4 5 0
1 1 -1 -1 3 4 -5 0
-1 8 0
-1 9 0
1 1 1 2 3 -4 0
1 1 2 -4 -5 0
1 1 1 -2 -3 -4 5 0
1 1 1 1 -4 0
1 1 1 -4 7 0
1 1 1 2 3 -4 0
1 1 1 -4 -5 0
1 1 -1 -1 3 -4 5 0
-4 8 0
-4 9 0
-1 1 1 1 4 0
-1 1 2 3 5 0
-1 1 1 1 5 0
-1 1 1 -1 -2 3 -5 0
1 -1 1 2 3 -4 0
-1 1 1 4 5 0
1 -1 1 -4 -5 0
1 -1 -2 7 0
-1 1 -1 -1 -2 3 -4 0
-1 1 2 -3 4 0
-1 1 1 -1 -2 -3 -4 0
-1 -1 1 2 -3 -5 0
-1 1 -1 -1 -2 -3 -5 0
-1 8 0
-1 9 0
-1 1 1 2 3 4 0
1 -1 1 1 3 7 0
1 1 2 -3 -7 0
1 1 1 -2 -4 0
-1 1 -2 7 0
1 -1 1 1 5 0
1 -1 2 4 5 0
1 -1 1 -1 3 4 -5 0
1 -1 4 7 0
-1 1 -1 2 -3 -4 0
-1 -1 2 -4 -5 0
1 -1 2 7 0
1 -1 1 5 7 0
1 -1 -1 -4 -5 -7 0
1 -1 1 -2 3 -4 0
-1 1 2 -7 0
-1 -1 -2 7 0
-1 -1 2 -3 -4 0
-1 -1 1 1 -5 0
-1 -1 -1 3 4 5 0
-1 -1 2 -4 -5 0
-1 -1 3 7 0
-1 -1 2 -3 -5 0
-1 -1 2 -3 -7 0
-1 -1 1 -1 -2 3 4 0
-1 -1 1 -1 -2 -3 5 0
-1 1 2 3 -7 0
1 -1 1 2 -3 5 0
1 -1 -1 1 -3 7 0
1 -1 -1 1 -2 -5 0
1 -1 -1 1 4 0
1 -1 -1 2 3 4 0
1 -1 -1 -2 -3 -5 0
1 -1 -1 4 7 0
1 -1 5 7 0
1 -1 -1 -1 -3 -4 0
-1 -1 1 2 3 5 0
-1 -1 -1 1 -4 0
-1 -1 -1 -1 -2 3 5 0
-1 -1 -1 -1 -2 -3 4 0
-1 8 0
-1 9 0
-6 0
-6 10 0
-11 0
-12 0
-13 0
-7 14 0
-10 14 0
-7 -10 15 0
-7 -11 16 0
-7 -12 17 0
-11 15 0
-12 16 0
-13 17 0
-7 -13 0
-8 18 0
-14 18 0
-8 -14 19 0
-8 -15 20 0
-8 -16 21 0
-15 19 0
-16 20 0
-17 21 0
-8 -17 0
-9 21 0
